1678.0 21943.0 
1687.0 21849.0 
1673.0 21969.0 
1707.0 21683.0 
1649.0 22312.0 
1733.0 21653.0 
1781.0 21417.0 
1695.0 21732.0 
1638.0 22673.0 
1717.0 21681.0 
1642.0 22505.0 
1729.0 21669.0 
1664.0 22012.0 
1691.0 21811.0 
1648.0 22440.0 
1770.0 21449.0 
1761.0 21526.0 
1741.0 21599.0 
